p tdp 20 61
1 7
1 10
1 12
1 13
1 14
1 16
1 19
2 4
2 5
2 7
2 8
2 10
2 11
2 14
2 17
2 18
2 19
3 4
3 8
3 9
3 11
3 12
3 19
4 9
4 16
4 17
5 6
5 11
5 14
5 18
5 19
6 10
6 13
6 18
7 8
7 10
8 16
9 12
9 15
9 16
10 11
10 12
10 13
10 14
10 15
10 19
10 20
11 12
11 15
11 16
12 13
13 15
13 17
13 18
13 19
14 16
14 18
15 18
16 18
16 19
17 19
